solving instance uflp nlass holmberg 54 square
Couenne 0.5.8 -- an Open-Source solver for Mixed Integer Nonlinear Optimization
Mailing list: couenne@list.coin-or.org
Instructions: http://www.coin-or.org/Couenne
couenne: 
ANALYSIS TEST: Reformulating problem: 2.2 seconds
NLP0012I 
              Num      Status      Obj             It       time                 Location
NLP0014I             1         OPT 2163.5303       30 10.561181
NLP0014I             2         OPT 10428.319       31 0.714162
Couenne: new cutoff value 1.0428318624e+04 (16.9477 seconds)
Loaded instance "/tmp/jl_X7pTJN/model.nl"
Constraints:         3100
Variables:           3010 (1010 integer)
Auxiliaries:         1101 (0 integer)

Coin0506I Presolve 7991 (-110) rows, 3901 (-210) columns and 17791 (-320) elements
Clp0006I 0  Obj 0 Primal inf 99.9999 (100)
Clp0006I 234  Obj 1.8206317e-16 Primal inf 589.2185 (500)
Clp0006I 468  Obj 3.7331585e-16 Primal inf 615.68428 (505)
Clp0006I 702  Obj 3.7428267e-16 Primal inf 617.96734 (505)
Clp0006I 936  Obj 3.7005943e-16 Primal inf 595.63296 (505)
Clp0006I 1170  Obj 3.4496181e-16 Primal inf 633.21428 (505)
Clp0006I 1404  Obj 3.5474887e-16 Primal inf 654.96912 (505)
Clp0006I 1638  Obj 3.5765351e-16 Primal inf 668.43197 (505)
Clp0006I 1872  Obj 3.5136182e-16 Primal inf 700.10499 (505)
Clp0006I 2054  Obj 365.5
Clp0000I Optimal - objective value 365.5
Clp0032I Optimal objective 365.5 - 2054 iterations time 0.132, Presolve 0.04
Clp0000I Optimal - objective value 365.5
Cbc0012I Integer solution of 10428.319 found by Couenne Rounding NLP after 0 iterations and 0 nodes (0.01 seconds)
NLP Heuristic: time limit reached.
Clp0000I Optimal - objective value 365.5
Optimality Based BT: 0 improved bounds
Probing: 0 improved bounds
NLP Heuristic: no solution.
Cbc0031I 1556 added rows had average density of 2
Cbc0013I At root node, 1556 cuts changed objective from 365.5 to 2163.4311 in 20 passes
Cbc0014I Cut generator 0 (Couenne convexifier cuts) - 13844 row cuts average 2.0 elements, 203 column cuts (1710 active)
Cbc0010I After 0 nodes, 1 on tree, 10428.319 best solution, best possible 2163.4311 (27.94 seconds)
Optimality Based BT: 0 improved bounds
Optimality Based BT: 1 improved bounds
Optimality Based BT: 0 improved bounds
Optimality Based BT: 1 improved bounds
Couenne: new cutoff value 7.1707080840e+03 (160.177 seconds)
Cbc0012I Integer solution of 7170.7081 found by Couenne Rounding NLP after 17780 iterations and 4 nodes (142.91 seconds)
Optimality Based BT: 0 improved bounds
Couenne: new cutoff value 6.9450607777e+03 (212.317 seconds)
Cbc0012I Integer solution of 6945.0608 found by Couenne Rounding NLP after 20008 iterations and 6 nodes (195.05 seconds)
Optimality Based BT: 1 improved bounds
Cbc0010I After 100 nodes, 50 on tree, 6945.0608 best solution, best possible 2384.1367 (236.72 seconds)
Cbc0010I After 200 nodes, 100 on tree, 6945.0608 best solution, best possible 2384.1367 (261.34 seconds)
Cbc0010I After 300 nodes, 150 on tree, 6945.0608 best solution, best possible 2384.1367 (279.00 seconds)
Cbc0010I After 400 nodes, 200 on tree, 6945.0608 best solution, best possible 2384.1367 (293.71 seconds)
Cbc0010I After 500 nodes, 250 on tree, 6945.0608 best solution, best possible 2384.1367 (307.10 seconds)
Cbc0010I After 600 nodes, 300 on tree, 6945.0608 best solution, best possible 2384.1367 (320.04 seconds)
Cbc0010I After 700 nodes, 320 on tree, 6945.0608 best solution, best possible 2384.1367 (329.51 seconds)
Optimality Based BT: 0 improved bounds
Optimality Based BT: 1 improved bounds
Optimality Based BT: 0 improved bounds
Couenne: new cutoff value 6.3016706295e+03 (457.001 seconds)
Cbc0012I Integer solution of 6301.6706 found by Couenne Rounding NLP after 465073 iterations and 736 nodes (439.74 seconds)
Optimality Based BT: 0 improved bounds
Optimality Based BT: 0 improved bounds
Cbc0010I After 800 nodes, 271 on tree, 6301.6706 best solution, best possible 2387.6419 (526.97 seconds)
Cbc0010I After 900 nodes, 321 on tree, 6301.6706 best solution, best possible 2387.6419 (544.34 seconds)
Cbc0010I After 1000 nodes, 371 on tree, 6301.6706 best solution, best possible 2387.6419 (554.86 seconds)
Couenne: new cutoff value 5.5878040798e+03 (572.881 seconds)
Cbc0004I Integer solution of 5587.8041 found after 662847 iterations and 1009 nodes (555.63 seconds)
Cbc0010I After 1100 nodes, 321 on tree, 5587.8041 best solution, best possible 2390.0864 (583.01 seconds)
Cbc0010I After 1200 nodes, 358 on tree, 5587.8041 best solution, best possible 2390.0864 (596.14 seconds)
Cbc0010I After 1300 nodes, 398 on tree, 5587.8041 best solution, best possible 2393.086 (615.64 seconds)
Cbc0010I After 1400 nodes, 419 on tree, 5587.8041 best solution, best possible 2393.086 (626.08 seconds)
Optimality Based BT: 2 improved bounds
Cbc0010I After 1500 nodes, 450 on tree, 5587.8041 best solution, best possible 2395.7379 (648.85 seconds)
Cbc0010I After 1600 nodes, 500 on tree, 5587.8041 best solution, best possible 2395.7379 (668.11 seconds)
Cbc0010I After 1700 nodes, 541 on tree, 5587.8041 best solution, best possible 2395.7379 (681.58 seconds)
Cbc0010I After 1800 nodes, 567 on tree, 5587.8041 best solution, best possible 2396.375 (722.38 seconds)
Cbc0010I After 1900 nodes, 617 on tree, 5587.8041 best solution, best possible 2396.375 (739.49 seconds)
Cbc0010I After 2000 nodes, 667 on tree, 5587.8041 best solution, best possible 2396.375 (752.75 seconds)
Cbc0010I After 2100 nodes, 701 on tree, 5587.8041 best solution, best possible 2396.6992 (763.34 seconds)
Cbc0010I After 2200 nodes, 751 on tree, 5587.8041 best solution, best possible 2396.6992 (785.04 seconds)
Cbc0010I After 2300 nodes, 780 on tree, 5587.8041 best solution, best possible 2396.6992 (794.26 seconds)
Cbc0010I After 2400 nodes, 792 on tree, 5587.8041 best solution, best possible 2396.6992 (800.50 seconds)
Couenne: new cutoff value 5.3699810611e+03 (818.418 seconds)
Cbc0004I Integer solution of 5369.9811 found after 1601636 iterations and 2408 nodes (801.17 seconds)
Cbc0010I After 2500 nodes, 701 on tree, 5369.9811 best solution, best possible 2397.3505 (821.89 seconds)
Cbc0010I After 2600 nodes, 742 on tree, 5369.9811 best solution, best possible 2399.4297 (839.59 seconds)
Cbc0010I After 2700 nodes, 792 on tree, 5369.9811 best solution, best possible 2399.4297 (859.17 seconds)
Cbc0010I After 2800 nodes, 842 on tree, 5369.9811 best solution, best possible 2399.4297 (876.10 seconds)
Cbc0010I After 2900 nodes, 868 on tree, 5369.9811 best solution, best possible 2400.3402 (891.52 seconds)
Cbc0010I After 3000 nodes, 918 on tree, 5369.9811 best solution, best possible 2400.3402 (911.16 seconds)
Couenne: new cutoff value 5.3316095266e+03 (933.383 seconds)
Cbc0004I Integer solution of 5331.6095 found after 2141812 iterations and 3063 nodes (916.13 seconds)
Cbc0010I After 3100 nodes, 904 on tree, 5331.6095 best solution, best possible 2402.0977 (927.42 seconds)
Cbc0010I After 3200 nodes, 954 on tree, 5331.6095 best solution, best possible 2402.0977 (947.41 seconds)
Cbc0010I After 3300 nodes, 964 on tree, 5331.6095 best solution, best possible 2402.0977 (955.55 seconds)
Cbc0010I After 3400 nodes, 1004 on tree, 5331.6095 best solution, best possible 2403.4127 (977.04 seconds)
Cbc0010I After 3500 nodes, 1033 on tree, 5331.6095 best solution, best possible 2403.4127 (989.29 seconds)
Cbc0010I After 3600 nodes, 1053 on tree, 5331.6095 best solution, best possible 2405.0004 (1005.39 seconds)
Cbc0010I After 3700 nodes, 1090 on tree, 5331.6095 best solution, best possible 2405.0004 (1021.67 seconds)
Cbc0010I After 3800 nodes, 1097 on tree, 5331.6095 best solution, best possible 2405.0004 (1028.37 seconds)
Couenne: new cutoff value 5.3232238620e+03 (1049.7 seconds)
Cbc0004I Integer solution of 5323.2239 found after 2673033 iterations and 3869 nodes (1032.45 seconds)
Cbc0010I After 3900 nodes, 1109 on tree, 5323.2239 best solution, best possible 2406.4157 (1041.96 seconds)
Cbc0010I After 4000 nodes, 1159 on tree, 5323.2239 best solution, best possible 2406.4157 (1060.32 seconds)
Cbc0010I After 4100 nodes, 1202 on tree, 5323.2239 best solution, best possible 2407.2505 (1081.47 seconds)
Cbc0010I After 4200 nodes, 1249 on tree, 5323.2239 best solution, best possible 2408.8452 (1102.51 seconds)
Cbc0010I After 4300 nodes, 1299 on tree, 5323.2239 best solution, best possible 2408.8452 (1123.17 seconds)
Cbc0010I After 4400 nodes, 1343 on tree, 5323.2239 best solution, best possible 2410.0356 (1144.72 seconds)
Cbc0010I After 4500 nodes, 1393 on tree, 5323.2239 best solution, best possible 2410.0356 (1159.69 seconds)
Cbc0010I After 4600 nodes, 1429 on tree, 5323.2239 best solution, best possible 2411.3371 (1176.82 seconds)
Cbc0010I After 4700 nodes, 1467 on tree, 5323.2239 best solution, best possible 2411.3371 (1190.21 seconds)
Cbc0010I After 4800 nodes, 1483 on tree, 5323.2239 best solution, best possible 2411.3371 (1196.96 seconds)
Couenne: new cutoff value 5.2326125241e+03 (1220.26 seconds)
Cbc0004I Integer solution of 5232.6125 found after 3462258 iterations and 4890 nodes (1203.01 seconds)
Cbc0010I After 4900 nodes, 1384 on tree, 5232.6125 best solution, best possible 2413.7861 (1207.11 seconds)
Cbc0010I After 5000 nodes, 1434 on tree, 5232.6125 best solution, best possible 2413.7861 (1227.99 seconds)
Cbc0010I After 5100 nodes, 1478 on tree, 5232.6125 best solution, best possible 2415.7823 (1246.96 seconds)
Cbc0010I After 5200 nodes, 1507 on tree, 5232.6125 best solution, best possible 2416.5021 (1269.03 seconds)
Cbc0010I After 5300 nodes, 1557 on tree, 5232.6125 best solution, best possible 2416.5021 (1292.66 seconds)
Cbc0010I After 5400 nodes, 1600 on tree, 5232.6125 best solution, best possible 2418.4441 (1313.49 seconds)
Couenne: new cutoff value 5.1760141907e+03 (1335.29 seconds)
Cbc0004I Integer solution of 5176.0142 found after 3986817 iterations and 5458 nodes (1318.04 seconds)
Cbc0010I After 5500 nodes, 1567 on tree, 5176.0142 best solution, best possible 2419.4357 (1330.09 seconds)
Cbc0010I After 5600 nodes, 1617 on tree, 5176.0142 best solution, best possible 2419.4357 (1346.04 seconds)
Cbc0010I After 5700 nodes, 1667 on tree, 5176.0142 best solution, best possible 2419.4357 (1358.96 seconds)
Cbc0010I After 5800 nodes, 1714 on tree, 5176.0142 best solution, best possible 2420.2888 (1380.28 seconds)
Cbc0010I After 5900 nodes, 1761 on tree, 5176.0142 best solution, best possible 2420.2888 (1402.17 seconds)
Cbc0010I After 6000 nodes, 1804 on tree, 5176.0142 best solution, best possible 2421.6716 (1424.56 seconds)
Cbc0010I After 6100 nodes, 1846 on tree, 5176.0142 best solution, best possible 2423.2305 (1450.25 seconds)
Cbc0010I After 6200 nodes, 1855 on tree, 5176.0142 best solution, best possible 2423.2305 (1458.09 seconds)
Cbc0010I After 6300 nodes, 1886 on tree, 5176.0142 best solution, best possible 2425.255 (1473.27 seconds)
Cbc0010I After 6400 nodes, 1923 on tree, 5176.0142 best solution, best possible 2425.255 (1488.54 seconds)
Cbc0010I After 6500 nodes, 1953 on tree, 5176.0142 best solution, best possible 2427.4728 (1509.79 seconds)
Cbc0010I After 6600 nodes, 2000 on tree, 5176.0142 best solution, best possible 2428.7425 (1531.46 seconds)
Cbc0010I After 6700 nodes, 2035 on tree, 5176.0142 best solution, best possible 2429.8416 (1547.73 seconds)
Cbc0010I After 6800 nodes, 2085 on tree, 5176.0142 best solution, best possible 2429.8416 (1565.41 seconds)
Cbc0010I After 6900 nodes, 2130 on tree, 5176.0142 best solution, best possible 2431.7416 (1587.55 seconds)
Cbc0010I After 7000 nodes, 2172 on tree, 5176.0142 best solution, best possible 2433.5411 (1605.71 seconds)
Cbc0010I After 7100 nodes, 2222 on tree, 5176.0142 best solution, best possible 2433.5411 (1628.30 seconds)
Cbc0010I After 7200 nodes, 2248 on tree, 5176.0142 best solution, best possible 2434.652 (1642.77 seconds)
Cbc0010I After 7300 nodes, 2295 on tree, 5176.0142 best solution, best possible 2436.0106 (1667.51 seconds)
Cbc0010I After 7400 nodes, 2345 on tree, 5176.0142 best solution, best possible 2436.0106 (1687.08 seconds)
Cbc0010I After 7500 nodes, 2395 on tree, 5176.0142 best solution, best possible 2436.0106 (1702.57 seconds)
Cbc0010I After 7600 nodes, 2413 on tree, 5176.0142 best solution, best possible 2437.1743 (1716.95 seconds)
Cbc0010I After 7700 nodes, 2463 on tree, 5176.0142 best solution, best possible 2437.1743 (1735.45 seconds)
Cbc0010I After 7800 nodes, 2495 on tree, 5176.0142 best solution, best possible 2437.823 (1752.26 seconds)
Cbc0010I After 7900 nodes, 2533 on tree, 5176.0142 best solution, best possible 2438.2554 (1768.01 seconds)
Cbc0010I After 8000 nodes, 2583 on tree, 5176.0142 best solution, best possible 2438.2554 (1791.99 seconds)
Cbc0010I After 8100 nodes, 2629 on tree, 5176.0142 best solution, best possible 2438.2554 (1808.47 seconds)
Cbc0010I After 8200 nodes, 2678 on tree, 5176.0142 best solution, best possible 2439.6402 (1830.63 seconds)
Cbc0010I After 8300 nodes, 2728 on tree, 5176.0142 best solution, best possible 2439.6402 (1851.15 seconds)
Cbc0010I After 8400 nodes, 2757 on tree, 5176.0142 best solution, best possible 2442.6574 (1868.13 seconds)
Cbc0010I After 8500 nodes, 2803 on tree, 5176.0142 best solution, best possible 2442.6574 (1891.56 seconds)
Cbc0010I After 8600 nodes, 2838 on tree, 5176.0142 best solution, best possible 2445.4564 (1911.35 seconds)
Cbc0010I After 8700 nodes, 2881 on tree, 5176.0142 best solution, best possible 2447.6563 (1927.05 seconds)
Cbc0010I After 8800 nodes, 2927 on tree, 5176.0142 best solution, best possible 2447.6563 (1949.97 seconds)
Cbc0010I After 8900 nodes, 2943 on tree, 5176.0142 best solution, best possible 2449.7882 (1964.84 seconds)
Cbc0010I After 9000 nodes, 2993 on tree, 5176.0142 best solution, best possible 2449.7882 (1985.21 seconds)
Cbc0010I After 9100 nodes, 3025 on tree, 5176.0142 best solution, best possible 2451.8852 (2004.73 seconds)
Cbc0010I After 9200 nodes, 3071 on tree, 5176.0142 best solution, best possible 2453.9659 (2028.85 seconds)
Cbc0010I After 9300 nodes, 3111 on tree, 5176.0142 best solution, best possible 2458.4669 (2057.58 seconds)
Cbc0010I After 9400 nodes, 3161 on tree, 5176.0142 best solution, best possible 2458.4669 (2078.06 seconds)
Cbc0010I After 9500 nodes, 3206 on tree, 5176.0142 best solution, best possible 2464.2565 (2099.11 seconds)
Cbc0010I After 9600 nodes, 3248 on tree, 5176.0142 best solution, best possible 2471.5403 (2115.38 seconds)
Cbc0010I After 9700 nodes, 3295 on tree, 5176.0142 best solution, best possible 2471.5403 (2137.70 seconds)
Cbc0010I After 9800 nodes, 3324 on tree, 5176.0142 best solution, best possible 2475.6673 (2153.15 seconds)
Cbc0010I After 9900 nodes, 3367 on tree, 5176.0142 best solution, best possible 2485.354 (2174.44 seconds)
Cbc0010I After 10000 nodes, 3417 on tree, 5176.0142 best solution, best possible 2485.354 (2191.45 seconds)
Cbc0010I After 10100 nodes, 3457 on tree, 5176.0142 best solution, best possible 2557.8465 (2211.00 seconds)
Cbc0010I After 10200 nodes, 3507 on tree, 5176.0142 best solution, best possible 2557.8465 (2226.43 seconds)
Cbc0010I After 10300 nodes, 3551 on tree, 5176.0142 best solution, best possible 2588.9491 (2283.84 seconds)
Cbc0010I After 10400 nodes, 3590 on tree, 5176.0142 best solution, best possible 2588.9491 (2294.63 seconds)
Cbc0010I After 10500 nodes, 3610 on tree, 5176.0142 best solution, best possible 2588.9491 (2301.22 seconds)
Couenne: new cutoff value 4.9979328182e+03 (2323.59 seconds)
Cbc0004I Integer solution of 4997.9328 found after 8380537 iterations and 10579 nodes (2306.34 seconds)
Cbc0010I After 10600 nodes, 3265 on tree, 4997.9328 best solution, best possible 2613.9442 (2313.03 seconds)
Cbc0010I After 10700 nodes, 3315 on tree, 4997.9328 best solution, best possible 2613.9442 (2332.80 seconds)
Optimality Based BT: 0 improved bounds
Cbc0010I After 10800 nodes, 3355 on tree, 4997.9328 best solution, best possible 2615.6527 (2419.83 seconds)
Optimality Based BT: 1 improved bounds
Cbc0010I After 10900 nodes, 3405 on tree, 4997.9328 best solution, best possible 2615.6527 (2444.27 seconds)
Cbc0010I After 11000 nodes, 3443 on tree, 4997.9328 best solution, best possible 2615.6527 (2454.25 seconds)
Cbc0010I After 11100 nodes, 3463 on tree, 4997.9328 best solution, best possible 2615.6527 (2461.85 seconds)
Optimality Based BT: 0 improved bounds
Cbc0010I After 11200 nodes, 3505 on tree, 4997.9328 best solution, best possible 2617.6744 (2485.62 seconds)
Cbc0010I After 11300 nodes, 3539 on tree, 4997.9328 best solution, best possible 2617.6744 (2496.55 seconds)
Cbc0010I After 11400 nodes, 3556 on tree, 4997.9328 best solution, best possible 2620.3947 (2504.86 seconds)
Cbc0010I After 11500 nodes, 3606 on tree, 4997.9328 best solution, best possible 2620.3947 (2530.47 seconds)
Cbc0010I After 11600 nodes, 3641 on tree, 4997.9328 best solution, best possible 2620.3947 (2540.65 seconds)
Cbc0010I After 11700 nodes, 3659 on tree, 4997.9328 best solution, best possible 2622.9688 (2549.70 seconds)
Cbc0010I After 11800 nodes, 3709 on tree, 4997.9328 best solution, best possible 2622.9688 (2570.11 seconds)
Cbc0010I After 11900 nodes, 3753 on tree, 4997.9328 best solution, best possible 2624.4076 (2587.52 seconds)
Cbc0010I After 12000 nodes, 3795 on tree, 4997.9328 best solution, best possible 2624.7314 (2604.41 seconds)
Cbc0010I After 12100 nodes, 3845 on tree, 4997.9328 best solution, best possible 2624.7314 (2630.05 seconds)
Cbc0010I After 12200 nodes, 3895 on tree, 4997.9328 best solution, best possible 2624.7314 (2645.41 seconds)
Cbc0010I After 12300 nodes, 3923 on tree, 4997.9328 best solution, best possible 2624.7314 (2655.45 seconds)
Cbc0010I After 12400 nodes, 3946 on tree, 4997.9328 best solution, best possible 2625.9842 (2670.72 seconds)
Cbc0010I After 12500 nodes, 3993 on tree, 4997.9328 best solution, best possible 2627.062 (2691.51 seconds)
Cbc0010I After 12600 nodes, 4042 on tree, 4997.9328 best solution, best possible 2627.062 (2711.81 seconds)
Cbc0010I After 12700 nodes, 4066 on tree, 4997.9328 best solution, best possible 2629.2778 (2729.56 seconds)
Cbc0010I After 12800 nodes, 4109 on tree, 4997.9328 best solution, best possible 2629.2778 (2744.65 seconds)
Cbc0010I After 12900 nodes, 4155 on tree, 4997.9328 best solution, best possible 2629.8686 (2765.15 seconds)
Cbc0010I After 13000 nodes, 4203 on tree, 4997.9328 best solution, best possible 2630.0265 (2790.42 seconds)
Cbc0010I After 13100 nodes, 4249 on tree, 4997.9328 best solution, best possible 2631.372 (2811.67 seconds)
Cbc0010I After 13200 nodes, 4299 on tree, 4997.9328 best solution, best possible 2631.372 (2833.14 seconds)
Cbc0010I After 13300 nodes, 4348 on tree, 4997.9328 best solution, best possible 2631.372 (2849.64 seconds)
Cbc0010I After 13400 nodes, 4388 on tree, 4997.9328 best solution, best possible 2632.1962 (2868.29 seconds)
Cbc0010I After 13500 nodes, 4412 on tree, 4997.9328 best solution, best possible 2632.1962 (2876.51 seconds)
Cbc0010I After 13600 nodes, 4431 on tree, 4997.9328 best solution, best possible 2632.199 (2885.93 seconds)
Cbc0010I After 13700 nodes, 4471 on tree, 4997.9328 best solution, best possible 2634.3234 (2905.51 seconds)
Cbc0010I After 13800 nodes, 4518 on tree, 4997.9328 best solution, best possible 2634.3234 (2923.24 seconds)
Cbc0010I After 13900 nodes, 4566 on tree, 4997.9328 best solution, best possible 2634.4766 (2944.03 seconds)
Cbc0010I After 14000 nodes, 4591 on tree, 4997.9328 best solution, best possible 2634.4766 (2952.30 seconds)
Cbc0010I After 14100 nodes, 4610 on tree, 4997.9328 best solution, best possible 2634.4766 (2958.75 seconds)
Couenne: new cutoff value 4.9060125553e+03 (2981 seconds)
Cbc0004I Integer solution of 4906.0126 found after 10960180 iterations and 14173 nodes (2963.76 seconds)
Cbc0010I After 14200 nodes, 4306 on tree, 4906.0126 best solution, best possible 2635.1319 (2973.04 seconds)
Cbc0010I After 14300 nodes, 4356 on tree, 4906.0126 best solution, best possible 2635.1319 (2994.25 seconds)
Cbc0010I After 14400 nodes, 4379 on tree, 4906.0126 best solution, best possible 2635.1319 (3006.53 seconds)
Cbc0010I After 14500 nodes, 4409 on tree, 4906.0126 best solution, best possible 2635.655 (3024.65 seconds)
Cbc0010I After 14600 nodes, 4459 on tree, 4906.0126 best solution, best possible 2635.655 (3043.02 seconds)
Cbc0010I After 14700 nodes, 4489 on tree, 4906.0126 best solution, best possible 2637.1553 (3058.46 seconds)
Cbc0010I After 14800 nodes, 4539 on tree, 4906.0126 best solution, best possible 2637.1553 (3078.47 seconds)
Cbc0010I After 14900 nodes, 4580 on tree, 4906.0126 best solution, best possible 2638.4228 (3099.14 seconds)
Cbc0010I After 15000 nodes, 4623 on tree, 4906.0126 best solution, best possible 2638.8002 (3120.36 seconds)
Cbc0010I After 15100 nodes, 4659 on tree, 4906.0126 best solution, best possible 2639.1165 (3132.67 seconds)
Cbc0010I After 15200 nodes, 4709 on tree, 4906.0126 best solution, best possible 2639.1165 (3154.43 seconds)
Cbc0010I After 15300 nodes, 4753 on tree, 4906.0126 best solution, best possible 2639.8154 (3171.99 seconds)
Cbc0010I After 15400 nodes, 4792 on tree, 4906.0126 best solution, best possible 2639.8154 (3187.81 seconds)
Cbc0010I After 15500 nodes, 4832 on tree, 4906.0126 best solution, best possible 2640.8175 (3207.22 seconds)
Cbc0010I After 15600 nodes, 4873 on tree, 4906.0126 best solution, best possible 2642.1254 (3227.54 seconds)
Cbc0010I After 15700 nodes, 4911 on tree, 4906.0126 best solution, best possible 2644.7372 (3246.82 seconds)
Cbc0010I After 15800 nodes, 4949 on tree, 4906.0126 best solution, best possible 2644.7372 (3261.05 seconds)
Cbc0010I After 15900 nodes, 4980 on tree, 4906.0126 best solution, best possible 2644.9588 (3273.51 seconds)
Cbc0010I After 16000 nodes, 5020 on tree, 4906.0126 best solution, best possible 2644.9588 (3294.86 seconds)
Cbc0010I After 16100 nodes, 5047 on tree, 4906.0126 best solution, best possible 2645.4926 (3311.80 seconds)
Cbc0010I After 16200 nodes, 5093 on tree, 4906.0126 best solution, best possible 2645.8369 (3330.43 seconds)
Cbc0010I After 16300 nodes, 5143 on tree, 4906.0126 best solution, best possible 2645.8369 (3347.28 seconds)
Cbc0010I After 16400 nodes, 5183 on tree, 4906.0126 best solution, best possible 2646.2455 (3369.71 seconds)
Cbc0010I After 16500 nodes, 5224 on tree, 4906.0126 best solution, best possible 2646.7217 (3389.14 seconds)
Cbc0010I After 16600 nodes, 5264 on tree, 4906.0126 best solution, best possible 2646.899 (3404.72 seconds)
Cbc0010I After 16700 nodes, 5303 on tree, 4906.0126 best solution, best possible 2648.4133 (3421.74 seconds)
Cbc0010I After 16800 nodes, 5348 on tree, 4906.0126 best solution, best possible 2648.4133 (3438.51 seconds)
Cbc0010I After 16900 nodes, 5398 on tree, 4906.0126 best solution, best possible 2648.8532 (3458.67 seconds)
Cbc0010I After 17000 nodes, 5431 on tree, 4906.0126 best solution, best possible 2649.7431 (3480.56 seconds)
Cbc0010I After 17100 nodes, 5481 on tree, 4906.0126 best solution, best possible 2649.7431 (3501.51 seconds)
Cbc0010I After 17200 nodes, 5528 on tree, 4906.0126 best solution, best possible 2651.2233 (3517.74 seconds)
Cbc0010I After 17300 nodes, 5571 on tree, 4906.0126 best solution, best possible 2651.2233 (3533.69 seconds)
Cbc0010I After 17400 nodes, 5617 on tree, 4906.0126 best solution, best possible 2652.177 (3552.74 seconds)
Cbc0010I After 17500 nodes, 5667 on tree, 4906.0126 best solution, best possible 2652.177 (3566.70 seconds)
Cbc0020I Exiting on maximum time
Cbc0005I Partial search - best objective 4906.0126 (best possible 2652.177), took 14003014 iterations and 17578 nodes (3588.91 seconds)
Cbc0035I Maximum depth 365, 0 variables fixed on reduced cost

 	"Not finished"

Linearization cuts added at root node:       8101
Linearization cuts added in total:           8101  (separation time: 0.020645s)
Total solve time:                          3589.2s (3589.2s in branch-and-bound)
Lower bound:                              2652.18
Upper bound:                              4906.01  (gap: 84.95%)
Branch-and-bound nodes:                     17578
Stats: /tmp/jl_X7pTJN/model.nl 3010 [var] 1010 [int] 3100 [con] 1101 [aux]   8101 [root]     8101 [tot] 0.020645 [sep]   3589.2 [time]   3589.2 [bb]         2.652177e+03 [lower]         4.906013e+03 [upper]   17578 [nodes]
Performance of                           FBBT:	    105.172s,    29387 runs. fix: 0.000124955 shrnk:    27.1578 ubd:          0 2ubd:          0 infeas:          0
Performance of                           OBBT:	    11.6681s,       16 runs. fix:    0.38048 shrnk:    15.7601 ubd:          0 2ubd:          0 infeas:          0
ERROR: LoadError: MathOptInterface.GetAttributeNotAllowed{MathOptInterface.ObjectiveBound}: Getting attribute MathOptInterface.ObjectiveBound() cannot be performed: AmplNLWriter.Optimizer does not support getting the attribute MathOptInterface.ObjectiveBound(). You may want to use a `CachingOptimizer` in `AUTOMATIC` mode or you may need to call `reset_optimizer` before doing this operation if the `CachingOptimizer` is in `MANUAL` mode.
Stacktrace:
  [1] get_fallback(model::AmplNLWriter.Optimizer, attr::MathOptInterface.ObjectiveBound)
    @ MathOptInterface ~/.julia/packages/MathOptInterface/gLl4d/src/attributes.jl:409
  [2] get(::AmplNLWriter.Optimizer, ::MathOptInterface.ObjectiveBound)
    @ MathOptInterface ~/.julia/packages/MathOptInterface/gLl4d/src/attributes.jl:390
  [3] _get_model_attribute(model::MathOptInterface.Utilities.CachingOptimizer{AmplNLWriter.Optimizer, MathOptInterface.Utilities.UniversalFallback{MathOptInterface.Utilities.Model{Float64}}}, attr::MathOptInterface.ObjectiveBound)
    @ MathOptInterface.Utilities ~/.julia/packages/MathOptInterface/gLl4d/src/Utilities/cachingoptimizer.jl:865
  [4] get(model::MathOptInterface.Utilities.CachingOptimizer{AmplNLWriter.Optimizer, MathOptInterface.Utilities.UniversalFallback{MathOptInterface.Utilities.Model{Float64}}}, attr::MathOptInterface.ObjectiveBound)
    @ MathOptInterface.Utilities ~/.julia/packages/MathOptInterface/gLl4d/src/Utilities/cachingoptimizer.jl:900
  [5] get(b::MathOptInterface.Bridges.LazyBridgeOptimizer{MathOptInterface.Utilities.CachingOptimizer{AmplNLWriter.Optimizer, MathOptInterface.Utilities.UniversalFallback{MathOptInterface.Utilities.Model{Float64}}}}, attr::MathOptInterface.ObjectiveBound)
    @ MathOptInterface.Bridges ~/.julia/packages/MathOptInterface/gLl4d/src/Bridges/bridge_optimizer.jl:889
  [6] _get_model_attribute(model::MathOptInterface.Utilities.CachingOptimizer{MathOptInterface.Bridges.LazyBridgeOptimizer{MathOptInterface.Utilities.CachingOptimizer{AmplNLWriter.Optimizer, MathOptInterface.Utilities.UniversalFallback{MathOptInterface.Utilities.Model{Float64}}}}, MathOptInterface.Utilities.UniversalFallback{MathOptInterface.Utilities.Model{Float64}}}, attr::MathOptInterface.ObjectiveBound)
    @ MathOptInterface.Utilities ~/.julia/packages/MathOptInterface/gLl4d/src/Utilities/cachingoptimizer.jl:865
  [7] get(model::MathOptInterface.Utilities.CachingOptimizer{MathOptInterface.Bridges.LazyBridgeOptimizer{MathOptInterface.Utilities.CachingOptimizer{AmplNLWriter.Optimizer, MathOptInterface.Utilities.UniversalFallback{MathOptInterface.Utilities.Model{Float64}}}}, MathOptInterface.Utilities.UniversalFallback{MathOptInterface.Utilities.Model{Float64}}}, attr::MathOptInterface.ObjectiveBound)
    @ MathOptInterface.Utilities ~/.julia/packages/MathOptInterface/gLl4d/src/Utilities/cachingoptimizer.jl:900
  [8] _moi_get_result(model::MathOptInterface.Utilities.CachingOptimizer{MathOptInterface.Bridges.LazyBridgeOptimizer{MathOptInterface.Utilities.CachingOptimizer{AmplNLWriter.Optimizer, MathOptInterface.Utilities.UniversalFallback{MathOptInterface.Utilities.Model{Float64}}}}, MathOptInterface.Utilities.UniversalFallback{MathOptInterface.Utilities.Model{Float64}}}, args::MathOptInterface.ObjectiveBound)
    @ JuMP ~/.julia/packages/JuMP/i68GU/src/optimizer_interface.jl:1053
  [9] get(model::JuMP.Model, attr::MathOptInterface.ObjectiveBound)
    @ JuMP ~/.julia/packages/JuMP/i68GU/src/optimizer_interface.jl:1073
 [10] objective_bound(model::JuMP.Model)
    @ JuMP ~/.julia/packages/JuMP/i68GU/src/objective.jl:78
 [11] nl_uflp_nlass(filename::String, cost::Symbol, solver::AmplNLWriter.Optimizer, solver_params::Vector{Any}; solve::Bool, write_nl::Bool, with_cap_constraint::Bool)
    @ IterativePWLB ~/git/ipwlb/code/sources/IterativePWLB/src/nlsolver.jl:885
 [12] top-level scope
    @ ~/git/ipwlb/code/sources/IterativePWLB/test/couenne/uflp_nlass/script.jl:14
in expression starting at /home/ccontard/git/ipwlb/code/sources/IterativePWLB/test/couenne/uflp_nlass/script.jl:14
reading holmberg data file /home/ccontard/git/ipwlb/code/instances/uflp/holmberg/p54
